p cnf 41 118
a 19 30 0
e 1 2 3 4 5 6 7 8 9 10 11 12 13 14 15 16 17 18 20 21 22 23 24 25 26 27 28 29 31 32 33 34 35 36 37 38 39 40 41 0
-3 -1 0
-3 2 0
1 -2 3 0
-3 4 0
3 4 0
7 -5 0
7 -6 0
5 6 -7 0
-4 -7 -8 0
4 7 -8 0
-4 7 8 0
4 -7 8 0
-6 -9 -10 0
6 9 -10 0
-6 9 10 0
6 -9 10 0
-11 -8 0
-11 10 0
8 -10 11 0
-14 12 0
-14 -13 0
-12 13 14 0
15 6 0
15 -14 0
-6 14 -15 0
-16 1 0
-16 -2 0
-1 2 16 0
17 -15 0
17 -16 0
15 16 -17 0
-18 -13 0
-18 2 0
13 -2 18 0
19 18 0
19 -13 0
-18 13 -19 0
20 -17 0
20 19 0
17 -19 -20 0
21 -1 0
21 -12 0
1 12 -21 0
22 -13 0
22 21 0
13 -21 -22 0
-23 -15 0
-23 -22 0
15 22 23 0
-24 -2 0
-24 23 0
2 -23 24 0
-25 13 0
-25 -18 0
-13 18 25 0
-25 -15 -26 0
25 15 -26 0
-25 15 26 0
25 -15 26 0
27 -24 0
27 26 0
24 -26 -27 0
28 -20 0
28 27 0
20 -27 -28 0
11 28 -29 0
-11 -28 -29 0
11 -28 29 0
-11 28 29 0
-31 30 0
-31 -13 0
-30 13 31 0
30 31 -32 0
-30 -31 -32 0
30 -31 32 0
-30 31 32 0
30 22 -33 0
-30 -22 -33 0
30 -22 33 0
-30 22 33 0
34 -21 0
34 -14 0
21 14 -34 0
-21 -9 -35 0
21 9 -35 0
-21 9 35 0
21 -9 35 0
34 -35 -36 0
-34 35 -36 0
34 35 36 0
-34 -35 36 0
-37 -33 0
-37 36 0
33 -36 37 0
38 13 0
38 1 0
-13 -1 -38 0
39 -37 0
39 38 0
37 -38 -39 0
40 -32 0
40 -39 0
32 39 -40 0
-41 29 0
-41 -40 0
-29 40 41 0
2 8 -11 21 28 0
-11 30 36 0
27 20 2 -6 -39 -5 0
-7 -13 -17 -15 0
27 -32 -36 4 -8 -34 12 0
19 31 -35 -15 6 -40 0
3 -20 -15 10 0
35 -3 24 -4 -20 -5 29 8 0
39 11 -4 -21 19 5 29 0
35 -8 -13 -15 0
-2 37 26 -30 -9 0
41 0
